Academic license - for non-commercial use only
Gurobi Optimizer version 9.0.3 build v9.0.3rc0 (mac64)
Optimize a model with 1796 rows, 1560 columns and 8140 nonzeros
Model fingerprint: 0x7ebb763b
Variable types: 0 continuous, 1560 integer (1560 binary)
Coefficient statistics:
  Matrix range     [1e+00, 1e+00]
  Objective range  [1e+01, 1e+04]
  Bounds range     [1e+00, 1e+00]
  RHS range        [1e+00, 5e+01]
Presolve removed 20 rows and 10 columns
Presolve time: 0.04s
Presolved: 1776 rows, 1550 columns, 8090 nonzeros
Variable types: 0 continuous, 1550 integer (1550 binary)
Found heuristic solution: objective 38161.000000

Concurrent LP optimizer: dual simplex and barrier
Showing barrier log only...

Root barrier log...

Ordering time: 0.01s

Barrier statistics:
 AA' NZ     : 4.489e+04
 Factor NZ  : 2.711e+05 (roughly 4 MBytes of memory)
 Factor Ops : 5.349e+07 (less than 1 second per iteration)
 Threads    : 3

Barrier performed 0 iterations in 0.09 seconds
Barrier solve interrupted - model solved by another algorithm


Solved with dual simplex

Root relaxation: objective 3.429150e+04, 609 iterations, 0.02 seconds

    Nodes    |    Current Node    |     Objective Bounds      |     Work
 Expl Unexpl |  Obj  Depth IntInf | Incumbent    BestBd   Gap | It/Node Time

     0     0 34291.5000    0  112 38161.0000 34291.5000  10.1%     -    0s
H    0     0                    34496.000000 34291.5000  0.59%     -    0s
H    0     0                    34368.000000 34291.5000  0.22%     -    0s
     0     0 34305.0000    0  114 34368.0000 34305.0000  0.18%     -    0s
     0     0 34305.0000    0  106 34368.0000 34305.0000  0.18%     -    0s
H    0     0                    34344.000000 34305.0000  0.11%     -    0s
H    0     0                    34325.000000 34305.0000  0.06%     -    0s
     0     0 34325.0000    0  108 34325.0000 34325.0000  0.00%     -    0s

Cutting planes:
  Gomory: 1
  Zero half: 7

Explored 1 nodes (1002 simplex iterations) in 0.20 seconds
Thread count was 8 (of 8 available processors)

Solution count 6: 34325 34344 34368 ... 38161

Optimal solution found (tolerance 1.00e-04)
Best objective 3.432500000000e+04, best bound 3.432500000000e+04, gap 0.0000%

User-callback calls 173, time in user-callback 0.00 sec
Solution written to /Users/mdeboute/Desktop/Etudes/Master/M2/S9/GOPP/Projet/multi-period-flp/solution/instMulti_I10_J50_T3_0_result.txt
